
--- Job Numbrix.gms Start 06/18/21 05:19:17 34.3.0 rac355f3 WEX-WEI x86 64bit/MS Windows
--- Applying:
    C:\GAMS\34\gmsprmNT.txt
    C:\Users\Erwin\Documents\GAMS\gamsconfig.yaml
--- GAMS Parameters defined
    Input D:\projects\blog\Numbrix\Numbrix.gms
    PageWidth 120
    PageSize 0
    PageContr 3
    Action CE
    ScrDir D:\projects\blog\Numbrix\225a\
    SysDir C:\GAMS\34\
    WorkDir D:\projects\blog\Numbrix\
    LogOption 3
    DFormat 0
    TFormat 0
    ErrorLog 99
    IDE 1
Licensee: Eval License                                   S201210/0001CO-GEN
          Amsterdam Optimization Modeling Group,                     DCE378
          C:\Users\Erwin\Documents\GAMS\gamslice.txt
          Evaluation license: Not for commercial or production use
GAMS 34.3.0   Copyright (C) 1987-2021 GAMS Development. All rights reserved
--- Starting compilation
--- Numbrix.gms(61) 3 Mb
--- Starting execution: elapsed 0:00:00.031
--- Numbrix.gms(54) 4 Mb
--- Generating MIP model m
--- Numbrix.gms(55) 9 Mb
---   6,643 rows  6,562 columns  42,643 non-zeroes
---   6,561 discrete-columns
--- Executing CPLEX (Solvelink=2): elapsed 0:00:00.202

IBM ILOG CPLEX   34.3.0 rac355f3 Released Feb 25, 2021 WEI x86 64bit/MS Window

--- GAMS/Cplex Link licensed for continuous and discrete problems.
--- Space for names approximately 0.27 Mb
--- Use option 'names no' to turn use of names off
--- GMO memory 3.51 Mb (peak 3.56 Mb)
--- Dictionary memory 0.00 Mb
--- Cplex 20.1.0.0 link memory 0.20 Mb (peak 1.12 Mb)
--- Starting Cplex

Version identifier: 20.1.0.0 | 2020-11-10 | 9bedb6d68
CPXPARAM_Advance                                 0
CPXPARAM_Threads                                 1
CPXPARAM_MIP_Display                             4
CPXPARAM_MIP_Tolerances_AbsMIPGap                0
Generic callback                                 0x50
Tried aggregator 3 times.
MIP Presolve eliminated 6476 rows and 6406 columns.
MIP Presolve modified 13 coefficients.
Aggregator did 10 substitutions.
Reduced MIP has 156 rows, 146 columns, and 604 nonzeros.
Reduced MIP has 146 binaries, 0 generals, 0 SOSs, and 0 indicators.
Presolve time = 0.08 sec. (10.31 ticks)
Found incumbent of value 0.000000 after 0.11 sec. (13.60 ticks)

Root node processing (before b&c):
  Real time             =    0.11 sec. (13.81 ticks)
Sequential b&c:
  Real time             =    0.00 sec. (0.00 ticks)
                          ------------
Total (root+branch&cut) =    0.11 sec. (13.81 ticks)

--- MIP status (101): integer optimal solution.
--- Cplex Time: 0.11sec (det. 13.83 ticks)

--- Fixing integer variables and solving final LP...

Version identifier: 20.1.0.0 | 2020-11-10 | 9bedb6d68
CPXPARAM_Advance                                 2
CPXPARAM_Threads                                 1
CPXPARAM_MIP_Display                             4
CPXPARAM_MIP_Tolerances_AbsMIPGap                0
Tried aggregator 1 time.
LP Presolve eliminated 6642 rows and 6562 columns.
All rows and columns eliminated.
Presolve time = 0.02 sec. (3.93 ticks)

--- Fixed MIP status (1): optimal.
--- Cplex Time: 0.05sec (det. 6.24 ticks)


Proven optimal solution
MIP Solution:            0.000000    (0 iterations, 0 nodes)
Final Solve:             0.000000    (0 iterations)

Best possible:           0.000000
Absolute gap:            0.000000
Relative gap:            0.000000

--- Reading solution for model m
--- Executing after solve: elapsed 0:00:00.871
--- Numbrix.gms(61) 9 Mb
*** Status: Normal completion
--- Job Numbrix.gms Stop 06/18/21 05:19:18 elapsed 0:00:00.888
